; ./prepared/seahorn/./sv_comp_flat_small/array-examples/standard_copyInitSum2_true-unreach-call_ground.c.flat_000.smt2
(set-logic HORN)


(declare-fun |main_1| ( Int Int Int Int Int Int Int ) Bool)

(assert
  (forall ( (A Int) (B Int) (C Int) (D Int) (E Int) (F Int) (v_6 Int) ) 
    (=>
      (and
        (and true (= 0 v_6))
      )
      (main_1 v_6 A B C D E F)
    )
  )
)
(assert
  (forall ( (A Int) (B Int) (C Int) (D Int) (E Int) (F Int) (G Int) (H Int) (I Int) (J Bool) (K Int) (L Int) (M Bool) (N Bool) (O Int) (v_15 Int) (v_16 Int) ) 
    (=>
      (and
        (main_1 v_15 D E F G H I)
        (and (= 0 v_15)
     (= A K)
     (or (= C O) (not N) (not J))
     (or (= O 0) (not N) (not J))
     (or (not M) (and J N))
     (= M true)
     (= B L)
     (= 1 v_16))
      )
      (main_1 v_16 D L F K H C)
    )
  )
)
(assert
  (forall ( (A Int) (B Bool) (C Int) (D Int) (E Int) (F Int) (G Int) (H Int) (I Int) (J Bool) (K Int) (L Int) (M Bool) (N Bool) (v_14 Int) (v_15 Int) ) 
    (=>
      (and
        (main_1 v_14 D E F G H I)
        (and (= 1 v_14)
     (= A (+ G (* 4 I)))
     (= L (+ 1 I))
     (or (= C K) (not N) (not J))
     (or (= K L) (not N) (not J))
     (or B (not N) (not J))
     (or (not M) (and J N))
     (= M true)
     (not (= (<= 100000 L) B))
     (= 1 v_15))
      )
      (main_1 v_15 D E F G H C)
    )
  )
)
(assert
  (forall ( (A Int) (B Int) (C Bool) (D Int) (E Int) (F Int) (G Int) (H Int) (I Int) (J Bool) (K Int) (L Bool) (M Bool) (N Bool) (O Bool) (P Int) (v_16 Int) (v_17 Int) ) 
    (=>
      (and
        (main_1 v_16 D E F G H I)
        (and (= 1 v_16)
     (= B (+ G (* 4 I)))
     (= K (+ 1 I))
     (or (not C) (not J) (not M))
     (or (not O) (not L) (= A P))
     (or (not O) (not L) (= P 0))
     (or (not L) (and J M))
     (or (not N) (and O L))
     (= N true)
     (not (= (<= 100000 K) C))
     (= 2 v_17))
      )
      (main_1 v_17 D E F G A I)
    )
  )
)
(assert
  (forall ( (A Int) (B Int) (C Bool) (D Int) (E Int) (F Int) (G Int) (H Int) (I Int) (J Int) (K Bool) (L Int) (M Int) (N Bool) (O Bool) (v_15 Int) (v_16 Int) ) 
    (=>
      (and
        (main_1 v_15 E F G H I J)
        (and (= 2 v_15)
     (= B (+ F (* 4 I)))
     (= A (+ H (* 4 I)))
     (= M (+ 1 I))
     (or (= D L) (not O) (not K))
     (or (= L M) (not O) (not K))
     (or C (not O) (not K))
     (or (not N) (and K O))
     (= N true)
     (not (= (<= 100000 M) C))
     (= 2 v_16))
      )
      (main_1 v_16 E F G H D J)
    )
  )
)
(assert
  (forall ( (A Int) (B Int) (C Int) (D Bool) (E Int) (F Int) (G Int) (H Int) (I Int) (J Int) (K Bool) (L Int) (M Bool) (N Bool) (O Bool) (P Bool) (Q Int) (v_17 Int) (v_18 Int) ) 
    (=>
      (and
        (main_1 v_17 E F G H I J)
        (and (= 2 v_17)
     (= B (+ H (* 4 I)))
     (= C (+ F (* 4 I)))
     (= L (+ 1 I))
     (or (not D) (not K) (not N))
     (or (not P) (not M) (= A Q))
     (or (not P) (not M) (= Q 0))
     (or (not M) (and K N))
     (or (not O) (and P M))
     (= O true)
     (not (= (<= 100000 L) D))
     (= 3 v_18))
      )
      (main_1 v_18 E F A H I J)
    )
  )
)
(assert
  (forall ( (A Int) (B Int) (C Int) (D Bool) (E Int) (F Int) (G Int) (H Int) (I Int) (J Int) (K Int) (L Bool) (M Int) (N Int) (O Bool) (P Bool) (v_16 Int) (v_17 Int) ) 
    (=>
      (and
        (main_1 v_16 F G H I J K)
        (and (= 3 v_16)
     (= A (+ G (* 4 H)))
     (= C (+ B H))
     (= N (+ 1 H))
     (or (= E M) (not P) (not L))
     (or (= M N) (not P) (not L))
     (or D (not P) (not L))
     (or (not O) (and L P))
     (= O true)
     (not (= (<= 100000 N) D))
     (= 3 v_17))
      )
      (main_1 v_17 F G E I J K)
    )
  )
)
(assert
  (forall ( (A Int) (B Int) (C Int) (D Int) (E Bool) (F Int) (G Int) (H Int) (I Int) (J Int) (K Int) (L Bool) (M Int) (N Bool) (O Bool) (P Bool) (Q Bool) (R Int) (v_18 Int) (v_19 Int) ) 
    (=>
      (and
        (main_1 v_18 F G H I J K)
        (and (= 3 v_18)
     (= B (+ G (* 4 H)))
     (= D (+ C H))
     (= M (+ 1 H))
     (or (not E) (not L) (not O))
     (or (not Q) (not N) (= A R))
     (or (not Q) (not N) (= R 0))
     (or (not N) (and L O))
     (or (not P) (and Q N))
     (= P true)
     (not (= (<= 100000 M) E))
     (= 4 v_19))
      )
      (main_1 v_19 A G H I J K)
    )
  )
)
(assert
  (forall ( (A Bool) (B Int) (C Int) (D Int) (E Bool) (F Bool) (G Int) (H Int) (I Int) (J Int) (K Int) (L Int) (M Int) (N Bool) (O Int) (P Int) (Q Bool) (R Bool) (v_18 Int) (v_19 Int) ) 
    (=>
      (and
        (main_1 v_18 H I J K L M)
        (and (= 4 v_18)
     (= E (= C D))
     (not (= E F))
     (= B (+ I (* 4 H)))
     (= D (+ 42 H))
     (= P (+ 1 H))
     (or (= G O) (not R) (not N))
     (or (= O P) (not R) (not N))
     (or (not F) (not R) (not N))
     (or (not Q) (and N R))
     (= A true)
     (= Q true)
     (not (= (<= 100000 H) A))
     (= 4 v_19))
      )
      (main_1 v_19 G I J K L M)
    )
  )
)
(assert
  (forall ( (A Bool) (B Int) (C Int) (D Int) (E Bool) (F Bool) (G Int) (H Int) (I Int) (J Int) (K Int) (L Int) (M Bool) (N Int) (O Bool) (P Bool) (v_16 Int) (v_17 Int) ) 
    (=>
      (and
        (main_1 v_16 G H I J K L)
        (and (= 4 v_16)
     (= E (= C D))
     (not (= E F))
     (= D (+ 42 G))
     (= B (+ H (* 4 G)))
     (= N (+ 1 G))
     (or (not P) (not M) F)
     (or (not O) (and P M))
     (= A true)
     (= O true)
     (not (= (<= 100000 G) A))
     (= 5 v_17))
      )
      (main_1 v_17 G H I J K L)
    )
  )
)
(assert
  (forall ( (A Int) (B Int) (C Int) (D Int) (E Int) (F Int) (v_6 Int) ) 
    (=>
      (and
        (main_1 v_6 A B C D E F)
        (= 5 v_6)
      )
      false
    )
  )
)

(check-sat)
(exit)
